data/CVRPLIB/Vrp-Set-XML100/instances/XML100_2211_25.vrp
NAME : XML100_2211_25
COMMENT : Generated by Queiroga, Sadykov, Uchoa, and Vidal (2021)
TYPE : CVRP
DIMENSION : 101
EDGE_WEIGHT_TYPE : EUC_2D
CAPACITY : 3
NODE_COORD_SECTION
1    500  500 
2    205  726 
3    272  715 
4    532  52  
5    254  804 
6    891  957 
7    544  563 
8    324  699 
9    183  693 
10   361  594 
11   239  730 
12   530  682 
13   177  746 
14   301  740 
15   318  706 
16   327  793 
17   266  218 
18   249  712 
19   602  806 
20   297  245 
21   610  693 
22   421  408 
23   790  963 
24   224  836 
25   165  325 
26   250  285 
27   295  781 
28   645  825 
29   509  640 
30   292  802 
31   690  993 
32   733  662 
33   254  769 
34   306  254 
35   701  990 
36   379  626 
37   243  785 
38   242  723 
39   439  431 
40   327  630 
41   588  663 
42   338  768 
43   499  179 
44   402  258 
45   328  490 
46   300  255 
47   523  661 
48   371  811 
49   368  359 
50   564  634 
51   636  669 
52   274  344 
53   269  787 
54   280  728 
55   305  301 
56   148  868 
57   299  691 
58   309  367 
59   217  319 
60   572  617 
61   279  713 
62   419  796 
63   352  873 
64   487  616 
65   407  150 
66   432  844 
67   331  201 
68   404  318 
69   543  724 
70   647  662 
71   862  975 
72   277  695 
73   488  597 
74   277  301 
75   519  644 
76   296  723 
77   123  580 
78   811  998 
79   267  750 
80   303  270 
81   307  843 
82   509  667 
83   500  685 
84   626  978 
85   157  663 
86   883  599 
87   236  716 
88   230  313 
89   342  648 
90   333  799 
91   625  933 
92   272  805 
93   380  855 
94   259  802 
95   552  656 
96   234  770 
97   614  928 
98   204  684 
99   484  283 
100  765  814 
101  365  489 
DEMAND_SECTION
1    0   
2    1   
3    1   
4    1   
5    1   
6    1   
7    1   
8    1   
9    1   
10   1   
11   1   
12   1   
13   1   
14   1   
15   1   
16   1   
17   1   
18   1   
19   1   
20   1   
21   1   
22   1   
23   1   
24   1   
25   1   
26   1   
27   1   
28   1   
29   1   
30   1   
31   1   
32   1   
33   1   
34   1   
35   1   
36   1   
37   1   
38   1   
39   1   
40   1   
41   1   
42   1   
43   1   
44   1   
45   1   
46   1   
47   1   
48   1   
49   1   
50   1   
51   1   
52   1   
53   1   
54   1   
55   1   
56   1   
57   1   
58   1   
59   1   
60   1   
61   1   
62   1   
63   1   
64   1   
65   1   
66   1   
67   1   
68   1   
69   1   
70   1   
71   1   
72   1   
73   1   
74   1   
75   1   
76   1   
77   1   
78   1   
79   1   
80   1   
81   1   
82   1   
83   1   
84   1   
85   1   
86   1   
87   1   
88   1   
89   1   
90   1   
91   1   
92   1   
93   1   
94   1   
95   1   
96   1   
97   1   
98   1   
99   1   
100  1   
101  1   
DEPOT_SECTION
1
-1
EOF
