data/CVRPLIB/Vrp-Set-XML100/solutions/XML100_2211_25.sol
Route #1: 72 63 6
Route #2: 93 4 91
Route #3: 8 84 76
Route #4: 23 55 12
Route #5: 98 43 67
Route #6: 9 39 35
Route #7: 100 44
Route #8: 66 16 19
Route #9: 24 58 87
Route #10: 10 37 17
Route #11: 26 29 80
Route #12: 47 62 92
Route #13: 74 46 28
Route #14: 73 25 54
Route #15: 75 53 2
Route #16: 38 21
Route #17: 99 27 18
Route #18: 94 49 59
Route #19: 89 15 41
Route #20: 77 70 5
Route #21: 64 3 42
Route #22: 50 20 40
Route #23: 71 60 56
Route #24: 97 1 86
Route #25: 61 65 68
Route #26: 7 14 88
Route #27: 22 34 30
Route #28: 13 32 78
Route #29: 52 36 95
Route #30: 90 83 96
Route #31: 48 51 57
Route #32: 33 45 79
Route #33: 11 82 81
Route #34: 69 31 85
Cost 23606
